77	0

0	2	2	3
9	2	4	5
9	2	4	5
7	1	7
1	1	6
4	1	7
8	1	8
7	2	9	10
10	1	11
8	1	11
8	2	12	13
9	1	14
7	1	14
1	1	15
1	1	16
10	2	17	18
8	2	20	21
1	1	19
7	2	20	21
2	2	22	23
5	1	22
3	1	24
6	1	24
3	1	25
8	1	26
6	1	27
6	1	28
3	1	29
8	1	30
10	1	31
7	1	32
5	1	33
6	1	34
6	1	35
3	1	36
7	1	37
10	1	38
5	1	39
3	1	40
1	1	41
7	1	42
2	1	43
5	1	44
9	1	45
6	1	46
6	2	47	48
10	1	50
7	1	49
1	1	50
8	1	51
8	1	52
1	1	53
1	2	54	56
4	1	55
2	1	57
10	1	57
3	1	58
6	1	59
7	2	60	61
8	1	63
3	1	62
3	1	63
10	1	64
7	2	65	66
2	1	67
8	1	67
1	1	68
3	2	69	70
9	1	71
10	1	71
8	1	72
5	1	73
4	1	74
9	1	75
7	1	76
10	1	77
0	0
